
Gurobi 5.6.3 (linux64) logging started Tue Apr 14 11:13:00 2015


Gurobi 5.6.3 (linux64) logging started Tue Apr 14 11:13:09 2015


Gurobi 5.6.3 (linux64) logging started Tue Apr 14 11:56:10 2015


Gurobi 5.6.3 (linux64) logging started Tue Apr 14 11:57:01 2015


Gurobi 5.6.3 (linux64) logging started Tue Apr 14 11:57:02 2015


Gurobi 5.6.3 (linux64) logging started Tue Apr 14 11:57:13 2015


Gurobi 5.6.3 (linux64) logging started Tue Apr 14 11:57:15 2015


Gurobi 5.6.3 (linux64) logging started Tue Apr 14 11:57:17 2015


Gurobi 5.6.3 (linux64) logging started Tue Apr 14 11:58:25 2015


Gurobi 5.6.3 (linux64) logging started Tue Apr 14 11:58:41 2015


Gurobi 5.6.3 (linux64) logging started Tue Apr 14 11:59:47 2015

Optimize a model with 527 rows, 3725 columns and 305554 nonzeros
Presolve removed 42 rows and 22 columns
Presolve time: 1.94s
Presolved: 485 rows, 3703 columns, 281441 nonzeros
Variable types: 0 continuous, 3703 integer (3703 binary)
Found heuristic solution: objective 0.0722802
Found heuristic solution: objective 0.0230999

Root relaxation: objective 1.341282e-02, 76 iterations, 0.06 seconds

    Nodes    |    Current Node    |     Objective Bounds      |     Work
 Expl Unexpl |  Obj  Depth IntInf | Incumbent    BestBd   Gap | It/Node Time

     0     0    0.01341    0    6    0.02310    0.01341  41.9%     -    2s
H    0     0                       0.0186289    0.01341  28.0%     -    2s
H    0     0                       0.0171386    0.01341  21.7%     -    2s
     0     0     cutoff    0         0.01714    0.01639  4.34%     -    3s

Cutting planes:
  Gomory: 1
  Clique: 1
  Zero half: 5

Explored 0 nodes (239 simplex iterations) in 3.12 seconds
Thread count was 2 (of 2 available processors)

Optimal solution found (tolerance 1.00e-04)
Best objective 1.713859910581e-02, best bound 1.713859910581e-02, gap 0.0%

Gurobi 5.6.3 (linux64) logging started Tue Apr 14 12:01:43 2015

Optimize a model with 527 rows, 3725 columns and 305554 nonzeros
Presolve removed 42 rows and 22 columns
Presolve time: 2.16s
Presolved: 485 rows, 3703 columns, 281441 nonzeros
Variable types: 0 continuous, 3703 integer (3703 binary)
Found heuristic solution: objective 0.0722802
Found heuristic solution: objective 0.0230999

Root relaxation: objective 1.341282e-02, 76 iterations, 0.03 seconds

    Nodes    |    Current Node    |     Objective Bounds      |     Work
 Expl Unexpl |  Obj  Depth IntInf | Incumbent    BestBd   Gap | It/Node Time

     0     0    0.01341    0    6    0.02310    0.01341  41.9%     -    2s
H    0     0                       0.0186289    0.01341  28.0%     -    2s
H    0     0                       0.0171386    0.01341  21.7%     -    2s
     0     0     cutoff    0         0.01714    0.01639  4.34%     -    3s

Cutting planes:
  Gomory: 1
  Clique: 1
  Zero half: 5

Explored 0 nodes (239 simplex iterations) in 3.25 seconds
Thread count was 2 (of 2 available processors)

Optimal solution found (tolerance 1.00e-04)
Best objective 1.713859910581e-02, best bound 1.713859910581e-02, gap 0.0%

Gurobi 5.6.3 (linux64) logging started Tue Apr 14 12:41:48 2015


Gurobi 5.6.3 (linux64) logging started Tue Apr 14 12:41:57 2015


Gurobi 5.6.3 (linux64) logging started Tue Apr 14 12:42:37 2015


Gurobi 5.6.3 (linux64) logging started Tue Apr 14 13:27:48 2015


Gurobi 5.6.3 (linux64) logging started Tue Apr 14 13:28:26 2015


Gurobi 5.6.3 (linux64) logging started Tue Apr 14 13:28:39 2015


Gurobi 5.6.3 (linux64) logging started Tue Apr 14 13:29:27 2015


Gurobi 5.6.3 (linux64) logging started Tue Apr 14 13:29:57 2015


Gurobi 5.6.3 (linux64) logging started Tue Apr 14 13:30:51 2015


Gurobi 5.6.3 (linux64) logging started Tue Apr 14 13:30:58 2015


Gurobi 5.6.3 (linux64) logging started Tue Apr 14 13:31:42 2015


Gurobi 5.6.3 (linux64) logging started Tue Apr 14 13:31:59 2015


Gurobi 5.6.3 (linux64) logging started Tue Apr 14 13:32:07 2015


Gurobi 5.6.3 (linux64) logging started Tue Apr 14 13:33:13 2015


Gurobi 5.6.3 (linux64) logging started Tue Apr 14 13:34:04 2015

Optimize a model with 527 rows, 3725 columns and 305554 nonzeros
Presolve removed 42 rows and 22 columns
Presolve time: 1.65s
Presolved: 485 rows, 3703 columns, 281441 nonzeros
Variable types: 0 continuous, 3703 integer (3703 binary)
Found heuristic solution: objective 0.0320417

Root relaxation: objective 1.341282e-02, 89 iterations, 0.03 seconds

    Nodes    |    Current Node    |     Objective Bounds      |     Work
 Expl Unexpl |  Obj  Depth IntInf | Incumbent    BestBd   Gap | It/Node Time

     0     0    0.01341    0    7    0.03204    0.01341  58.1%     -    1s
H    0     0                       0.0216095    0.01341  37.9%     -    2s
H    0     0                       0.0171386    0.01341  21.7%     -    2s
     0     0     cutoff    0         0.01714    0.01639  4.34%     -    2s

Cutting planes:
  Gomory: 1
  Clique: 1
  Zero half: 3

Explored 0 nodes (168 simplex iterations) in 2.47 seconds
Thread count was 2 (of 2 available processors)

Optimal solution found (tolerance 1.00e-04)
Best objective 1.713859910581e-02, best bound 1.713859910581e-02, gap 0.0%

Gurobi 5.6.3 (linux64) logging started Tue Apr 14 13:34:33 2015

Optimize a model with 527 rows, 3725 columns and 305554 nonzeros
Presolve removed 12 rows and 4 columns
Presolve time: 0.84s
Presolved: 515 rows, 3721 columns, 294652 nonzeros
Variable types: 8 continuous, 3713 integer (3703 binary)
Found heuristic solution: objective 0.4408255
Found heuristic solution: objective 0.3415737

Root relaxation: objective 1.232930e-01, 462 iterations, 0.15 seconds

    Nodes    |    Current Node    |     Objective Bounds      |     Work
 Expl Unexpl |  Obj  Depth IntInf | Incumbent    BestBd   Gap | It/Node Time

     0     0    0.12329    0   47    0.34157    0.12329  63.9%     -    1s
H    0     0                       0.1505282    0.12329  18.1%     -    2s
H    0     0                       0.1484742    0.12329  17.0%     -    4s
     0     0    0.12363    0   50    0.14847    0.12363  16.7%     -    6s

Cutting planes:
  Gomory: 1
  Implied bound: 3
  Clique: 17

Explored 0 nodes (645 simplex iterations) in 8.04 seconds
Thread count was 2 (of 2 available processors)

Solve interrupted
Best objective 1.484741784038e-01, best bound 1.236322612497e-01, gap 16.7315%

Gurobi 5.6.3 (linux64) logging started Tue Apr 14 13:34:50 2015

Optimize a model with 551 rows, 3725 columns and 318274 nonzeros
Presolve removed 12 rows and 4 columns
Presolve time: 0.80s
Presolved: 539 rows, 3721 columns, 307318 nonzeros
Variable types: 8 continuous, 3713 integer (3703 binary)
Found heuristic solution: objective 0.3900137
Found heuristic solution: objective 0.3415737

Root relaxation: objective 1.338898e-01, 1190 iterations, 0.41 seconds

    Nodes    |    Current Node    |     Objective Bounds      |     Work
 Expl Unexpl |  Obj  Depth IntInf | Incumbent    BestBd   Gap | It/Node Time

     0     0    0.13389    0   62    0.34157    0.13389  60.8%     -    2s
H    0     0                       0.1631211    0.13389  17.9%     -    3s
     0     0    0.13399    0   66    0.16312    0.13399  17.9%     -    7s
     0     0    0.13416    0   74    0.16312    0.13416  17.8%     -    9s
     0     0    0.13429    0   62    0.16312    0.13429  17.7%     -   11s
     0     0    0.13433    0   63    0.16312    0.13433  17.6%     -   12s
     0     0    0.13434    0   69    0.16312    0.13434  17.6%     -   14s
     0     2    0.13434    0   69    0.16312    0.13434  17.6%     -   25s
     1     3    0.13444    1   78    0.16312    0.13435  17.6%  69.0   30s
    52    53    0.13572   27   67    0.16312    0.13445  17.6%  44.6   35s
H   55    56                       0.1618496    0.13445  16.9%  42.3   41s
    83    84    0.13683   40   63    0.16185    0.13445  16.9%  38.0   49s
    85    86    0.13686   41   63    0.16185    0.13445  16.9%  37.6   50s
    96    97    0.13694   47   65    0.16185    0.13445  16.9%  35.6   55s
   101   103    0.13695   49   69    0.16185    0.13445  16.9%  34.4   63s
   213   208    0.13797   60   70    0.16185    0.13445  16.9%  23.9   68s
   253   243    0.13803   61   69    0.16185    0.13445  16.9%  22.6   72s
   255   249    0.13810   62   68    0.16185    0.13466  16.8%  24.0   76s
   498   456    0.14341  114   57    0.16185    0.13466  16.8%  23.8   81s

Cutting planes:
  Gomory: 2
  Clique: 10
  MIR: 1

Explored 884 nodes (21667 simplex iterations) in 93.54 seconds
Thread count was 2 (of 2 available processors)

Solve interrupted
Best objective 1.618495696401e-01, best bound 1.346590760753e-01, gap 16.7999%

Gurobi 5.6.3 (linux64) logging started Tue Apr 14 13:36:49 2015

Optimize a model with 527 rows, 3725 columns and 305554 nonzeros
Presolve removed 12 rows and 4 columns
Presolve time: 0.86s
Presolved: 515 rows, 3721 columns, 294652 nonzeros
Variable types: 8 continuous, 3713 integer (3703 binary)
Found heuristic solution: objective 0.4408255
Found heuristic solution: objective 0.3415737

Root relaxation: objective 1.232930e-01, 462 iterations, 0.15 seconds

    Nodes    |    Current Node    |     Objective Bounds      |     Work
 Expl Unexpl |  Obj  Depth IntInf | Incumbent    BestBd   Gap | It/Node Time

     0     0    0.12329    0   47    0.34157    0.12329  63.9%     -    1s
H    0     0                       0.1505282    0.12329  18.1%     -    2s
H    0     0                       0.1484742    0.12329  17.0%     -    4s
     0     0    0.12363    0   50    0.14847    0.12363  16.7%     -    6s
     0     0    0.12409    0   50    0.14847    0.12409  16.4%     -    8s
     0     0    0.12419    0   58    0.14847    0.12419  16.4%     -    9s
     0     0    0.12421    0   60    0.14847    0.12421  16.3%     -   11s
H    0     0                       0.1446107    0.12421  14.1%     -   14s
     0     2    0.12421    0   60    0.14461    0.12421  14.1%     -   23s
     1     3    0.12423    1   58    0.14461    0.12422  14.1%  37.0   27s
    16    14    0.12443   11   43    0.14461    0.12423  14.1%  56.6   30s
    27    23    0.12456   17   61    0.14461    0.12423  14.1%  48.4   37s
    53    46    0.12577   29   60    0.14461    0.12423  14.1%  44.6   41s
H   55    45                       0.1429480    0.12423  13.1%  43.1   41s
H   83    74                       0.1426056    0.12423  12.9%  37.5   48s
    88    79    0.12697   44   60    0.14261    0.12423  12.9%  37.8   50s

Cutting planes:
  Gomory: 1
  Implied bound: 3
  Clique: 12

Explored 120 nodes (5012 simplex iterations) in 54.45 seconds
Thread count was 2 (of 2 available processors)

Solve interrupted
Best objective 1.426056338028e-01, best bound 1.242279980201e-01, gap 12.8870%

Gurobi 5.6.3 (linux64) logging started Tue Apr 14 13:40:10 2015

Optimize a model with 527 rows, 3725 columns and 305554 nonzeros
Presolve removed 12 rows and 4 columns
Presolve time: 0.86s
Presolved: 515 rows, 3721 columns, 294652 nonzeros
Variable types: 8 continuous, 3713 integer (3703 binary)
Found heuristic solution: objective 0.4408255
Found heuristic solution: objective 0.3415737

Root relaxation: objective 1.232930e-01, 462 iterations, 0.15 seconds

    Nodes    |    Current Node    |     Objective Bounds      |     Work
 Expl Unexpl |  Obj  Depth IntInf | Incumbent    BestBd   Gap | It/Node Time

     0     0    0.12329    0   47    0.34157    0.12329  63.9%     -    1s

Explored 0 nodes (462 simplex iterations) in 1.58 seconds
Thread count was 2 (of 2 available processors)

Solve interrupted
Best objective 3.415737480438e-01, best bound 1.232930171386e-01, gap 63.9044%

Gurobi 5.6.3 (linux64) logging started Tue Apr 14 13:41:46 2015

Optimize a model with 527 rows, 3725 columns and 305554 nonzeros
Presolve removed 12 rows and 4 columns
Presolve time: 0.44s

Explored 0 nodes (0 simplex iterations) in 0.51 seconds
Thread count was 1 (of 2 available processors)

Solve interrupted
Best objective -, best bound -, gap -

Gurobi 5.6.3 (linux64) logging started Tue Apr 14 13:41:52 2015

Optimize a model with 527 rows, 3725 columns and 305554 nonzeros
Presolve removed 12 rows and 4 columns
Presolve time: 0.84s
Presolved: 515 rows, 3721 columns, 294652 nonzeros
Variable types: 8 continuous, 3713 integer (3703 binary)
Found heuristic solution: objective 0.4408255
Found heuristic solution: objective 0.3415737

Root relaxation: objective 1.232930e-01, 462 iterations, 0.15 seconds

    Nodes    |    Current Node    |     Objective Bounds      |     Work
 Expl Unexpl |  Obj  Depth IntInf | Incumbent    BestBd   Gap | It/Node Time

     0     0    0.12329    0   47    0.34157    0.12329  63.9%     -    1s

Explored 0 nodes (463 simplex iterations) in 2.53 seconds
Thread count was 2 (of 2 available processors)

Solve interrupted
Best objective 3.415737480438e-01, best bound 1.232930171386e-01, gap 63.9044%

Gurobi 5.6.3 (linux64) logging started Tue Apr 14 13:45:09 2015

Optimize a model with 527 rows, 3725 columns and 305554 nonzeros
Presolve removed 12 rows and 4 columns
Presolve time: 0.84s
Presolved: 515 rows, 3721 columns, 294652 nonzeros
Variable types: 8 continuous, 3713 integer (3703 binary)
Found heuristic solution: objective 0.4408255
Found heuristic solution: objective 0.3415737

Root relaxation: objective 1.232930e-01, 462 iterations, 0.15 seconds

    Nodes    |    Current Node    |     Objective Bounds      |     Work
 Expl Unexpl |  Obj  Depth IntInf | Incumbent    BestBd   Gap | It/Node Time

     0     0    0.12329    0   47    0.34157    0.12329  63.9%     -    1s
H    0     0                       0.1505282    0.12329  18.1%     -    2s
H    0     0                       0.1484742    0.12329  17.0%     -    4s

Explored 0 nodes (463 simplex iterations) in 4.21 seconds
Thread count was 2 (of 2 available processors)

Solve interrupted
Best objective 1.484741784038e-01, best bound 1.232930171386e-01, gap 16.9600%

Gurobi 5.6.3 (linux64) logging started Tue Apr 14 13:47:58 2015

Optimize a model with 527 rows, 3725 columns and 305554 nonzeros
Presolve removed 12 rows and 4 columns
Presolve time: 0.85s
Presolved: 515 rows, 3721 columns, 294652 nonzeros
Variable types: 8 continuous, 3713 integer (3703 binary)
Found heuristic solution: objective 0.4408255
Found heuristic solution: objective 0.3415737

Root relaxation: objective 1.232930e-01, 462 iterations, 0.15 seconds

    Nodes    |    Current Node    |     Objective Bounds      |     Work
 Expl Unexpl |  Obj  Depth IntInf | Incumbent    BestBd   Gap | It/Node Time

     0     0    0.12329    0   47    0.34157    0.12329  63.9%     -    1s
H    0     0                       0.1505282    0.12329  18.1%     -    2s
H    0     0                       0.1484742    0.12329  17.0%     -    4s
     0     0    0.12363    0   50    0.14847    0.12363  16.7%     -    6s
     0     0    0.12409    0   50    0.14847    0.12409  16.4%     -    8s
     0     0    0.12419    0   58    0.14847    0.12419  16.4%     -    9s
     0     0    0.12421    0   60    0.14847    0.12421  16.3%     -   11s
H    0     0                       0.1446107    0.12421  14.1%     -   14s
     0     2    0.12421    0   60    0.14461    0.12421  14.1%     -   24s
     1     3    0.12423    1   58    0.14461    0.12422  14.1%  37.0   27s
    16    14    0.12443   11   43    0.14461    0.12423  14.1%  56.6   31s
    27    23    0.12456   17   61    0.14461    0.12423  14.1%  48.4   37s
    53    46    0.12577   29   60    0.14461    0.12423  14.1%  44.6   42s
H   55    45                       0.1429480    0.12423  13.1%  43.1   42s
    64    55    0.12607   34   55    0.14295    0.12423  13.1%  41.8   45s
H   83    74                       0.1426056    0.12423  12.9%  37.5   49s
    88    79    0.12697   44   60    0.14261    0.12423  12.9%  37.8   52s
   102    94    0.12778   49   55    0.14261    0.12423  12.9%  35.4   57s
   173   164    0.13315  110   29    0.14261    0.12423  12.9%  26.0   61s

Cutting planes:
  Gomory: 1
  Implied bound: 3
  Clique: 12

Explored 190 nodes (5639 simplex iterations) in 61.51 seconds
Thread count was 2 (of 2 available processors)

Solve interrupted
Best objective 1.426056338028e-01, best bound 1.242279980201e-01, gap 12.8870%

Gurobi 5.6.3 (linux64) logging started Tue Apr 14 13:49:07 2015

Optimize a model with 527 rows, 3725 columns and 305554 nonzeros
Presolve removed 12 rows and 4 columns
Presolve time: 0.84s
Presolved: 515 rows, 3721 columns, 294652 nonzeros
Variable types: 8 continuous, 3713 integer (3703 binary)
Found heuristic solution: objective 0.4408255

Explored 0 nodes (0 simplex iterations) in 1.00 seconds
Thread count was 2 (of 2 available processors)

Time limit reached
Best objective 4.408255086071e-01, best bound 0.000000000000e+00, gap 100.0000%

Gurobi 5.6.3 (linux64) logging started Tue Apr 14 14:02:41 2015


Gurobi 5.6.3 (linux64) logging started Tue Apr 14 14:02:59 2015

Optimize a model with 527 rows, 3725 columns and 305554 nonzeros
Presolve removed 12 rows and 4 columns
Presolve time: 0.86s
Presolved: 515 rows, 3721 columns, 294652 nonzeros
Variable types: 8 continuous, 3713 integer (3703 binary)
Found heuristic solution: objective 0.4408255
Found heuristic solution: objective 0.3415737

Root relaxation: objective 1.232930e-01, 462 iterations, 0.15 seconds

    Nodes    |    Current Node    |     Objective Bounds      |     Work
 Expl Unexpl |  Obj  Depth IntInf | Incumbent    BestBd   Gap | It/Node Time

     0     0    0.12329    0   47    0.34157    0.12329  63.9%     -    1s
H    0     0                       0.1505282    0.12329  18.1%     -    2s
H    0     0                       0.1484742    0.12329  17.0%     -    3s

Explored 0 nodes (463 simplex iterations) in 3.72 seconds
Thread count was 2 (of 2 available processors)

Solve interrupted
Best objective 1.484741784038e-01, best bound 1.232930171386e-01, gap 16.9600%

Gurobi 5.6.3 (linux64) logging started Tue Apr 14 14:06:30 2015


Gurobi 5.6.3 (linux64) logging started Tue Apr 14 14:06:47 2015

Optimize a model with 527 rows, 3725 columns and 305554 nonzeros
Presolve removed 12 rows and 4 columns
Presolve time: 0.85s
Presolved: 515 rows, 3721 columns, 294652 nonzeros
Variable types: 8 continuous, 3713 integer (3703 binary)
Found heuristic solution: objective 0.4408255
Found heuristic solution: objective 0.3415737

Root relaxation: objective 1.232930e-01, 462 iterations, 0.15 seconds

    Nodes    |    Current Node    |     Objective Bounds      |     Work
 Expl Unexpl |  Obj  Depth IntInf | Incumbent    BestBd   Gap | It/Node Time

     0     0    0.12329    0   47    0.34157    0.12329  63.9%     -    1s
H    0     0                       0.1505282    0.12329  18.1%     -    2s
H    0     0                       0.1484742    0.12329  17.0%     -    4s
     0     0    0.12363    0   50    0.14847    0.12363  16.7%     -    6s
     0     0    0.12409    0   50    0.14847    0.12409  16.4%     -    8s

Cutting planes:
  Gomory: 1
  Implied bound: 2
  Clique: 10

Explored 0 nodes (850 simplex iterations) in 8.53 seconds
Thread count was 2 (of 2 available processors)

Solve interrupted
Best objective 1.484741784038e-01, best bound 1.240936757302e-01, gap 16.4207%

Gurobi 5.6.3 (linux64) logging started Tue Apr 14 14:10:30 2015

Optimize a model with 527 rows, 1431 columns and 124504 nonzeros
Presolve removed 44 rows and 376 columns
Presolve time: 0.41s
Presolved: 483 rows, 1055 columns, 75536 nonzeros
Variable types: 8 continuous, 1047 integer (1037 binary)
Found heuristic solution: objective 0.3513058

Root relaxation: objective 1.331466e-01, 310 iterations, 0.04 seconds

    Nodes    |    Current Node    |     Objective Bounds      |     Work
 Expl Unexpl |  Obj  Depth IntInf | Incumbent    BestBd   Gap | It/Node Time

     0     0    0.13315    0   50    0.35131    0.13315  62.1%     -    0s
H    0     0                       0.2502934    0.13315  46.8%     -    0s
H    0     0                       0.2489241    0.13315  46.5%     -    0s
     0     0    0.13380    0   55    0.24892    0.13380  46.2%     -    1s
H    0     0                       0.2449139    0.13380  45.4%     -    1s
     0     0    0.13434    0   58    0.24491    0.13434  45.1%     -    1s
     0     0    0.13446    0   63    0.24491    0.13446  45.1%     -    2s
     0     0    0.13451    0   62    0.24491    0.13451  45.1%     -    3s
     0     0    0.13451    0   61    0.24491    0.13451  45.1%     -    3s
     0     2    0.13451    0   61    0.24491    0.13451  45.1%     -    4s
     3     5    0.13501    3   59    0.24491    0.13451  45.1%  47.7    5s
H   30    14                       0.1815336    0.13462  25.8%  27.7    5s
H  253   197                       0.1810446    0.13462  25.6%  25.1    8s
   398   343     cutoff  176         0.18104    0.13590  24.9%  23.5   10s
   818   501    0.17642   58   61    0.18104    0.13696  24.4%  21.6   20s
   912   518    0.13956   29   51    0.18104    0.13764  24.0%  23.8   25s
  1765   728     cutoff   40         0.18104    0.14163  21.8%  21.8   30s
  5304   132     cutoff  120         0.18104    0.17546  3.09%  17.8   35s

Cutting planes:
  Gomory: 1
  Clique: 16

Explored 5492 nodes (95727 simplex iterations) in 35.12 seconds
Thread count was 2 (of 2 available processors)

Optimal solution found (tolerance 1.00e-04)
Best objective 1.810446009390e-01, best bound 1.810446009390e-01, gap 0.0%

Gurobi 5.6.3 (linux64) logging started Tue Apr 14 14:11:28 2015

Optimize a model with 535 rows, 4467 columns and 362971 nonzeros
Presolve removed 12 rows and 4 columns
Presolve time: 0.97s
Presolved: 523 rows, 4463 columns, 350192 nonzeros
Variable types: 8 continuous, 4455 integer (4445 binary)
Found heuristic solution: objective 0.3776897
Found heuristic solution: objective 0.3415737

Root relaxation: objective 1.232930e-01, 459 iterations, 0.18 seconds

    Nodes    |    Current Node    |     Objective Bounds      |     Work
 Expl Unexpl |  Obj  Depth IntInf | Incumbent    BestBd   Gap | It/Node Time

     0     0    0.12329    0   47    0.34157    0.12329  63.9%     -    1s
H    0     0                       0.1505282    0.12329  18.1%     -    3s
H    0     0                       0.1474961    0.12329  16.4%     -    5s
     0     0    0.12411    0   56    0.14750    0.12411  15.9%     -    7s
     0     0    0.12417    0   37    0.14750    0.12417  15.8%     -   10s
     0     0    0.12426    0   59    0.14750    0.12426  15.8%     -   11s
     0     0    0.12432    0   56    0.14750    0.12432  15.7%     -   13s
     0     0    0.12434    0   58    0.14750    0.12434  15.7%     -   15s
H    0     0                       0.1472760    0.12434  15.6%     -   17s

Cutting planes:
  Gomory: 1
  Implied bound: 3
  Clique: 12

Explored 0 nodes (1024 simplex iterations) in 17.64 seconds
Thread count was 2 (of 2 available processors)

Solve interrupted
Best objective 1.472760172144e-01, best bound 1.243355627904e-01, gap 15.5765%

Gurobi 5.6.3 (linux64) logging started Tue Apr 14 14:11:49 2015

Optimize a model with 535 rows, 4467 columns and 362971 nonzeros
Presolve removed 12 rows and 4 columns
Presolve time: 0.95s
Presolved: 523 rows, 4463 columns, 350192 nonzeros
Variable types: 8 continuous, 4455 integer (4445 binary)
Found heuristic solution: objective 0.3776897
Found heuristic solution: objective 0.3415737

Root relaxation: objective 1.232930e-01, 459 iterations, 0.15 seconds

    Nodes    |    Current Node    |     Objective Bounds      |     Work
 Expl Unexpl |  Obj  Depth IntInf | Incumbent    BestBd   Gap | It/Node Time

     0     0    0.12329    0   47    0.34157    0.12329  63.9%     -    1s
H    0     0                       0.1505282    0.12329  18.1%     -    2s
H    0     0                       0.1474961    0.12329  16.4%     -    5s
     0     0    0.12411    0   56    0.14750    0.12411  15.9%     -    7s
     0     0    0.12417    0   37    0.14750    0.12417  15.8%     -    9s
     0     0    0.12426    0   59    0.14750    0.12426  15.8%     -   11s
     0     0    0.12432    0   56    0.14750    0.12432  15.7%     -   12s
     0     0    0.12434    0   58    0.14750    0.12434  15.7%     -   14s
H    0     0                       0.1463224    0.12434  15.0%     -   17s
H    0     2                       0.1451242    0.12434  14.3%     -   30s
     0     2    0.12434    0   58    0.14512    0.12434  14.3%     -   30s
     5     7    0.12459    5   50    0.14512    0.12435  14.3%  43.0   35s
H   27    23                       0.1444396    0.12440  13.9%  49.1   43s
    56    49    0.12831   27   26    0.14444    0.12440  13.9%  35.1   53s

Cutting planes:
  Gomory: 1
  Implied bound: 3
  Clique: 12

Explored 57 nodes (2987 simplex iterations) in 53.11 seconds
Thread count was 2 (of 2 available processors)

Solve interrupted
Best objective 1.444395539906e-01, best bound 1.244029392737e-01, gap 13.8720%

Gurobi 5.6.3 (linux64) logging started Tue Apr 14 14:12:47 2015

Optimize a model with 527 rows, 3725 columns and 305554 nonzeros
Presolve removed 12 rows and 4 columns
Presolve time: 0.86s
Presolved: 515 rows, 3721 columns, 294652 nonzeros
Variable types: 8 continuous, 3713 integer (3703 binary)
Found heuristic solution: objective 0.4408255
Found heuristic solution: objective 0.3415737

Root relaxation: objective 1.232930e-01, 462 iterations, 0.15 seconds

    Nodes    |    Current Node    |     Objective Bounds      |     Work
 Expl Unexpl |  Obj  Depth IntInf | Incumbent    BestBd   Gap | It/Node Time

     0     0    0.12329    0   47    0.34157    0.12329  63.9%     -    1s
H    0     0                       0.1505282    0.12329  18.1%     -    2s
H    0     0                       0.1484742    0.12329  17.0%     -    4s
     0     0    0.12363    0   50    0.14847    0.12363  16.7%     -    6s
     0     0    0.12409    0   50    0.14847    0.12409  16.4%     -    8s
     0     0    0.12419    0   58    0.14847    0.12419  16.4%     -    9s
     0     0    0.12421    0   60    0.14847    0.12421  16.3%     -   11s
H    0     0                       0.1446107    0.12421  14.1%     -   14s
     0     2    0.12421    0   60    0.14461    0.12421  14.1%     -   25s
    11    11    0.12438    8   59    0.14461    0.12423  14.1%  70.7   30s
    27    23    0.12456   17   61    0.14461    0.12423  14.1%  48.4   40s
    53    46    0.12577   29   60    0.14461    0.12423  14.1%  44.6   45s
H   55    45                       0.1429480    0.12423  13.1%  43.1   45s
H   83    74                       0.1426056    0.12423  12.9%  37.5   52s
    88    79    0.12697   44   60    0.14261    0.12423  12.9%  37.8   55s
   102    94    0.12778   49   55    0.14261    0.12423  12.9%  35.4   61s
   173   164    0.12844   59   60    0.14261    0.12423  12.9%  26.2   66s

Cutting planes:
  Gomory: 1
  Implied bound: 3
  Clique: 12

Explored 212 nodes (6034 simplex iterations) in 69.75 seconds
Thread count was 2 (of 2 available processors)

Solve interrupted
Best objective 1.426056338028e-01, best bound 1.242279980201e-01, gap 12.8870%

Gurobi 5.6.3 (linux64) logging started Tue Apr 14 14:14:03 2015

Optimize a model with 535 rows, 5134 columns and 429980 nonzeros
Presolve removed 12 rows and 378 columns
Presolve time: 1.14s
Presolved: 523 rows, 4756 columns, 374473 nonzeros
Variable types: 8 continuous, 4748 integer (4738 binary)
Found heuristic solution: objective 0.3766872
Found heuristic solution: objective 0.3415737

Root relaxation: objective 1.232930e-01, 531 iterations, 0.19 seconds

    Nodes    |    Current Node    |     Objective Bounds      |     Work
 Expl Unexpl |  Obj  Depth IntInf | Incumbent    BestBd   Gap | It/Node Time

     0     0    0.12329    0   47    0.34157    0.12329  63.9%     -    2s
H    0     0                       0.1505282    0.12329  18.1%     -    3s
H    0     0                       0.1459067    0.12329  15.5%     -    6s
     0     0    0.12427    0   42    0.14591    0.12427  14.8%     -    8s
     0     0    0.12443    0   41    0.14591    0.12443  14.7%     -   10s
     0     0    0.12447    0   53    0.14591    0.12447  14.7%     -   11s
     0     0    0.12449    0   53    0.14591    0.12449  14.7%     -   13s
     0     0    0.12451    0   55    0.14591    0.12451  14.7%     -   16s
H    0     0                       0.1446107    0.12451  13.9%     -   18s
     0     2    0.12451    0   55    0.14461    0.12451  13.9%     -   31s
     1     3    0.12453    1   51    0.14461    0.12451  13.9%  52.0   36s
H   27    23                       0.1442439    0.12454  13.7%  64.5   46s
    55    46    0.12574   29   52    0.14424    0.12454  13.7%  42.2   53s
H   56    47                       0.1439016    0.12454  13.5%  41.4   53s
    77    68    0.12661   40   54    0.14390    0.12454  13.5%  39.4   55s
    84    73    0.12668   43   52    0.14390    0.12454  13.5%  37.7   60s
H   85    74                       0.1435837    0.12454  13.3%  37.3   60s
    96    85    0.12774   48   52    0.14358    0.12454  13.3%  37.5   65s

Cutting planes:
  Gomory: 1
  Clique: 11

Explored 124 nodes (5181 simplex iterations) in 66.86 seconds
Thread count was 2 (of 2 available processors)

Solve interrupted
Best objective 1.435837245696e-01, best bound 1.245426044277e-01, gap 13.2613%

Gurobi 5.6.3 (linux64) logging started Tue Apr 14 14:15:22 2015

Optimize a model with 527 rows, 3725 columns and 305554 nonzeros
Presolve removed 12 rows and 4 columns
Presolve time: 0.85s
Presolved: 515 rows, 3721 columns, 294652 nonzeros
Variable types: 8 continuous, 3713 integer (3703 binary)
Found heuristic solution: objective 0.4408255
Found heuristic solution: objective 0.3415737

Root relaxation: objective 1.232930e-01, 462 iterations, 0.15 seconds

    Nodes    |    Current Node    |     Objective Bounds      |     Work
 Expl Unexpl |  Obj  Depth IntInf | Incumbent    BestBd   Gap | It/Node Time

     0     0    0.12329    0   47    0.34157    0.12329  63.9%     -    1s
H    0     0                       0.1505282    0.12329  18.1%     -    2s
H    0     0                       0.1484742    0.12329  17.0%     -    4s
     0     0    0.12363    0   50    0.14847    0.12363  16.7%     -    6s
     0     0    0.12409    0   50    0.14847    0.12409  16.4%     -    8s
     0     0    0.12419    0   58    0.14847    0.12419  16.4%     -    9s
     0     0    0.12421    0   60    0.14847    0.12421  16.3%     -   10s
H    0     0                       0.1446107    0.12421  14.1%     -   14s
     0     2    0.12421    0   60    0.14461    0.12421  14.1%     -   23s

Cutting planes:
  Gomory: 1
  Implied bound: 3
  Clique: 12

Explored 1 nodes (980 simplex iterations) in 24.57 seconds
Thread count was 2 (of 2 available processors)

Solve interrupted
Best objective 1.446107198748e-01, best bound 1.242246563525e-01, gap 14.0972%

Gurobi 5.6.3 (linux64) logging started Tue Apr 14 14:18:30 2015


Gurobi 5.6.3 (linux64) logging started Tue Apr 14 14:18:40 2015

